nNurses = 187;
nHours = 38;
minHours = 5;
maxHours = 14;
maxConsec = 10;
maxPresence = 33;
demand = [33, 34, 36, 36, 34, 35, 39, 39, 35, 30, 25, 30, 28, 29, 32, 30, 32, 35, 36, 39, 43, 46, 47, 48, 49, 48, 48, 48, 44, 48, 49, 47, 43, 40, 36, 37, 40, 35];
